
  32    4
  10   10   10   10

   0   0   0   0   0   6 2 3 4 6 12 14 
   4  10  10  10  10   3 10 9 7 
   7  10  10  10  10   3 13 9 5 
   9  10  10  10  10   3 21 11 8 
   4  10  10  10  10   5 23 21 20 17 15 
   5  10  10  10  10   5 23 21 20 17 15 
   3  10  10  10  10   3 16 15 13 
   8  10  10  10  10   2 20 9 
   7  10  10  10  10   6 25 23 22 19 18 17 
   5  10  10  10  10   3 25 17 15 
   7  10  10  10  10   3 18 17 15 
   8  10  10  10  10   5 25 24 22 21 19 
   2  10  10  10  10   4 25 22 21 17 
  10  10  10  10  10   3 23 22 17 
   1  10  10  10  10   4 31 28 22 19 
   9  10  10  10  10   4 31 30 27 21 
   6  10  10  10  10   5 31 29 27 26 24 
  10  10  10  10  10   5 31 29 28 27 26 
   4  10  10  10  10   4 30 29 27 26 
  10  10  10  10  10   3 30 28 25 
   1  10  10  10  10   3 29 28 26 
   9  10  10  10  10   2 27 26 
   1  10  10  10  10   2 30 27 
  10  10  10  10  10   1 28 
   9  10  10  10  10   1 26 
   1  10  10  10  10   1 32
   5  10  10  10  10   1 32
   2  10  10  10  10   1 32
   1  10  10  10  10   1 32
   6  10  10  10  10   1 32
   8  10  10  10  10   1 32
   0   0   0   0   0   0 
